# LAMMPS input script for BCC Mo wich crack to relax at finite temperature 
# input variance: temperature T, crack system index idx, now_step
units 		metal
atom_style	atomic
dimension	3
boundary	p p p  

read_data 	dump/${idx}/Mo_${idx}_$T_${now_step}.data

pair_style 	eam/alloy
pair_coeff 	* * p_func/mo.fs.eam.alloy Mo Mo Mo Mo 
 
group 		upper type 2 
group 		lower type 3
neigh_modify 	exclude group upper lower   # delete the interaction between free surface 

group		bd type 4
group		mobile subtract all bd

# ------------ relax at finite temperature --------------
thermo		1000

compute     myTemp mobile temp

velocity    bd set 0.0 0.0 0.0
fix		1 bd setforce 0.0 0.0 0.0

fix		bd_nve bd nve
fix		mb_npt mobile npt temp $T $T $(100*dt) aniso 0.0 0.0 $(1000*dt)
fix_modify  mb_npt temp myTemp

run		20000

write_data	dump/${idx}/Mo_${idx}_$T_${now_step}_eq.data 

